language ESSENCE' 1.0
letting lastdx=91
letting cage be [
[34,7,11,6,11,5,11,5,10,4,10],
[55,4,2,3,2,3,3,2,3,2,4],
[16,8,2,7,2,7,3,6,3,0,0],
[33,13,14,14,14,14,13,0,0, 0,0],
[7,3,14,3,13,0,0, 0,0, 0,0],
[4,5,14,0,0, 0,0, 0,0, 0,0],
[12,8,5,0,0, 0,0, 0,0, 0,0],
[42,1,6,1,5,2,5,2,6,3,6],
[16,2,2,0,0, 0,0, 0,0, 0,0],
[17,6,4,5,4,0,0, 0,0, 0,0],
[40,16,4,16,3,16,2,15,2,14,2],
[35,1,10,2,10,3,10,0,0, 0,0],
[26,1,9,1,8,2,8,0,0, 0,0],
[55,8,15,9,15,9,16,8,16,7,16],
[6,8,10,0,0, 0,0, 0,0, 0,0],
[50,7,7,6,7,6,6,7,6,0,0],
[38,12,4,12,3,12,2,12,1,0,0],
[4,10,10,0,0, 0,0, 0,0, 0,0],
[12,11,14,0,0, 0,0, 0,0, 0,0],
[2,3,8,0,0, 0,0, 0,0, 0,0],
[6,15,6,0,0, 0,0, 0,0, 0,0],
[17,10,16,10,15,11,15,0,0, 0,0],
[18,5,8,6,8,7,8,0,0, 0,0],
[2,12,9,0,0, 0,0, 0,0, 0,0],
[39,15,9,16,9,16,10,0,0, 0,0],
[32,4,16,4,15,4,14,4,13,0,0],
[3,11,2,0,0, 0,0, 0,0, 0,0],
[1,12,15,0,0, 0,0, 0,0, 0,0],
[21,15,7,15,8,0,0, 0,0, 0,0],
[19,3,15,2,15,0,0, 0,0, 0,0],
[23,12,13,12,14,0,0, 0,0, 0,0],
[34,8,9,8,8,8,7,9,8,0,0],
[15,13,8,0,0, 0,0, 0,0, 0,0],
[8,16,13,0,0, 0,0, 0,0, 0,0],
[10,9,10,0,0, 0,0, 0,0, 0,0],
[19,8,11,9,11,0,0, 0,0, 0,0],
[21,15,14,15,15,0,0, 0,0, 0,0],
[8,11,5,0,0, 0,0, 0,0, 0,0],
[44,15,10,14,10,13,10,12,10,11,10],
[6,6,15,0,0, 0,0, 0,0, 0,0],
[43,10,13,9,13,9,14,10,14,8,14],
[14,5,13,0,0, 0,0, 0,0, 0,0],
[19,10,6,10,5,9,5,0,0, 0,0],
[38,3,7,4,7,4,6,5,6,5,7],
[41,13,3,13,4,13,2,13,1,0,0],
[14,1,12,1,13,1,14,0,0, 0,0],
[1,9,9,0,0, 0,0, 0,0, 0,0],
[52,1,16,1,15,2,16,3,16,0,0],
[22,14,3,15,3,0,0, 0,0, 0,0],
[51,4,1,5,1,5,2,5,3,0,0],
[13,5,16,5,15,6,16,0,0, 0,0],
[10,6,14,0,0, 0,0, 0,0, 0,0],
[3,15,16,16,16,0,0, 0,0, 0,0],
[14,14,1,0,0, 0,0, 0,0, 0,0],
[7,3,1,2,1,0,0, 0,0, 0,0],
[13,10,12,0,0, 0,0, 0,0, 0,0],
[37,10,8,10,9,11,9,11,8,12,8],
[25,11,3,10,3,9,3,8,3,0,0],
[28,7,15,7,14,7,13,8,13,0,0],
[28,10,4,9,4,11,4,0,0, 0,0],
[32,14,9,13,9,14,8,14,7,14,6],
[35,3,12,2,12,2,13,2,14,0,0],
[12,6,13,0,0, 0,0, 0,0, 0,0],
[15,10,7,0,0, 0,0, 0,0, 0,0],
[42,16,5,15,5,16,6,0,0, 0,0],
[8,1,11,0,0, 0,0, 0,0, 0,0],
[20,4,9,4,8,0,0, 0,0, 0,0],
[29,13,11,14,11,15,11,16,11,16,12],
[36,3,4,4,4,4,3,4,5,3,5],
[21,1,1,1,2,1,3,1,4,0,0],
[15,1,7,2,7,0,0, 0,0, 0,0],
[21,2,9,3,9,0,0, 0,0, 0,0],
[10,2,11,0,0, 0,0, 0,0, 0,0],
[39,3,11,4,11,4,12,5,12,0,0],
[13,5,9,0,0, 0,0, 0,0, 0,0],
[42,6,1,6,2,7,1,8,1,0,0],
[30,6,9,7,9,7,10,6,10,0,0],
[25,6,12,7,12,8,12,9,12,0,0],
[20,9,1,9,2,0,0, 0,0, 0,0],
[30,10,1,10,2,11,1,0,0, 0,0],
[43,10,11,11,11,11,12,11,13,0,0],
[2,11,6,0,0, 0,0, 0,0, 0,0],
[21,11,7,12,7,13,7,0,0, 0,0],
[7,11,16,0,0, 0,0, 0,0, 0,0],
[17,12,5,12,6,0,0, 0,0, 0,0],
[20,12,11,12,12,0,0, 0,0, 0,0],
[11,12,16,0,0, 0,0, 0,0, 0,0],
[14,13,15,0,0, 0,0, 0,0, 0,0],
[29,13,16,14,16,14,15,0,0, 0,0],
[7,15,1,16,1,0,0, 0,0, 0,0],
[8,16,7,16,8,0,0, 0,0, 0,0],
[15,16,14,16,15,0,0, 0,0, 0,0]
]
